(set-logic QF_S)
(declare-fun var0 () String)
(declare-fun var1 () String)
(declare-fun var2 () String)
(declare-fun var3 () Int)
(declare-fun var4 () Int)
(declare-fun var5 () String)
(declare-fun var6 () Int)
(declare-fun var7 () Int)
(assert (< (str.len var0) (str.len var1)))
(assert (str.in.re (str.substr var2 var3 var4) (re.* re.allchar)))
(assert (str.contains (str.at var5 var6) (str.replace var0 "E164G86" var0)))
(assert (<= (str.indexof var5 var2 var7) (str.to.int var5)))
(check-sat)